SECTION Graph
Nodes 555
Edges 1098
E 1 501 18
E 1 506 7
E 2 3 14
E 2 502 18
E 3 4 1
E 3 507 18
E 4 508 18
E 5 6 1
E 5 232 58
E 6 7 14
E 6 234 58
E 7 8 1
E 8 218 28
E 8 247 53
E 9 10 1
E 9 487 27
E 9 498 7
E 9 501 3
E 10 11 14
E 10 488 27
E 10 502 3
E 11 12 1
E 11 493 27
E 11 507 3
E 12 494 27
E 12 508 3
E 13 14 1
E 13 272 11
E 13 277 7
E 14 15 14
E 14 274 11
E 15 16 1
E 15 284 11
E 16 285 11
E 17 18 1
E 17 250 11
E 17 257 7
E 17 272 10
E 18 19 14
E 18 252 11
E 18 274 10
E 19 20 1
E 19 268 11
E 19 284 10
E 20 269 11
E 20 285 10
E 21 22 1
E 21 231 9
E 21 250 10
E 22 23 14
E 22 252 10
E 23 24 1
E 23 268 10
E 24 269 10
E 25 26 1
E 25 484 30
E 25 499 3
E 26 27 14
E 26 500 3
E 27 28 1
E 27 505 3
E 28 506 3
E 29 30 1
E 29 473 30
E 29 489 3
E 29 495 12
E 30 31 14
E 30 490 3
E 30 497 12
E 31 32 1
E 31 496 3
E 31 503 12
E 32 498 3
E 32 501 7
E 32 504 12
E 33 34 1
E 33 463 30
E 33 474 9
E 33 485 12
E 34 35 14
E 34 475 9
E 34 486 12
E 35 36 1
E 35 481 9
E 35 491 12
E 36 482 9
E 36 492 12
E 37 38 1
E 37 300 24
E 37 315 7
E 38 39 14
E 38 303 24
E 39 40 1
E 39 312 24
E 40 314 24
E 41 42 1
E 41 243 8
E 41 244 7
E 41 262 11
E 42 43 14
E 42 245 8
E 42 263 11
E 43 44 1
E 43 258 8
E 43 276 11
E 44 259 8
E 44 272 7
E 44 277 11
E 45 46 1
E 45 215 8
E 45 216 7
E 45 239 11
E 46 47 14
E 46 217 8
E 46 241 11
E 47 48 1
E 47 230 8
E 47 255 11
E 48 231 8
E 48 250 7
E 48 257 11
E 49 50 1
E 49 53 23
E 49 302 1
E 50 51 14
E 50 54 23
E 50 305 1
E 51 52 1
E 51 55 23
E 51 313 1
E 52 56 23
E 52 315 1
E 53 54 1
E 53 57 21
E 53 267 22
E 54 55 14
E 54 58 21
E 55 56 1
E 55 59 21
E 56 60 21
E 56 300 7
E 57 58 1
E 57 238 27
E 58 59 14
E 58 240 27
E 59 60 1
E 59 254 27
E 60 256 27
E 60 286 7
E 61 62 1
E 61 470 2
E 62 471 2
E 62 477 8
E 63 64 1
E 63 477 6
E 63 478 2
E 63 483 9
E 64 479 2
E 64 484 9
E 64 495 30
E 65 66 1
E 65 453 7
E 65 456 2
E 65 464 9
E 66 67 14
E 66 457 2
E 66 465 9
E 67 68 1
E 67 466 2
E 67 472 9
E 68 467 2
E 68 473 9
E 68 485 30
E 69 70 1
E 69 438 3
E 70 71 14
E 70 440 3
E 71 72 1
E 71 454 4
E 72 455 4
E 73 74 1
E 73 206 1
E 73 266 48
E 74 75 14
E 74 208 1
E 74 267 48
E 75 76 1
E 75 223 1
E 76 225 1
E 76 238 7
E 77 78 1
E 77 192 7
E 77 194 1
E 77 199 8
E 78 79 14
E 78 196 1
E 78 200 8
E 79 80 1
E 79 202 1
E 79 210 8
E 80 204 1
E 80 211 7
E 80 212 8
E 81 82 1
E 81 189 8
E 82 83 14
E 82 190 8
E 83 84 1
E 83 197 8
E 84 198 8
E 84 215 30
E 85 86 14
E 85 480 31
E 87 88 1
E 87 415 53
E 87 445 9
E 88 89 14
E 88 447 9
E 89 90 1
E 89 458 10
E 90 459 10
E 90 470 7
E 91 92 1
E 91 417 30
E 91 428 10
E 91 434 1
E 92 93 14
E 92 429 10
E 92 436 1
E 93 94 1
E 93 441 10
E 93 450 1
E 94 443 10
E 94 452 1
E 94 456 7
E 95 96 1
E 95 187 20
E 96 97 14
E 96 188 20
E 97 98 1
E 97 191 20
E 98 192 20
E 98 206 7
E 99 100 1
E 99 187 1
E 100 101 14
E 100 188 1
E 101 102 1
E 101 191 1
E 102 192 1
E 102 194 7
E 103 104 1
E 103 402 7
E 103 406 1
E 103 408 1
E 104 105 14
E 104 407 1
E 104 409 1
E 105 106 1
E 105 416 1
E 105 418 1
E 106 417 1
E 106 419 1
E 106 434 30
E 107 108 1
E 107 118 7
E 107 395 1
E 108 109 14
E 108 397 1
E 109 110 1
E 109 404 1
E 110 405 1
E 110 421 30
E 111 112 1
E 111 391 10
E 111 396 7
E 112 113 14
E 112 393 10
E 113 114 1
E 113 401 10
E 113 413 9
E 114 403 10
E 114 411 7
E 114 415 9
E 115 116 1
E 115 119 25
E 115 353 22
E 115 368 1
E 116 117 14
E 116 120 25
E 116 370 1
E 117 118 1
E 117 121 25
E 117 382 1
E 118 122 25
E 118 384 1
E 119 120 1
E 119 343 7
E 120 121 14
E 121 122 1
E 121 318 111
E 122 319 111
E 123 124 1
E 123 385 7
E 123 388 5
E 124 125 14
E 124 389 5
E 125 126 1
E 125 398 7
E 126 399 7
E 127 128 1
E 127 158 7
E 127 278 13
E 127 306 21
E 128 129 14
E 128 279 13
E 128 307 21
E 129 130 1
E 129 133 25
E 129 316 21
E 130 134 25
E 130 317 21
E 130 318 22
E 131 132 1
E 131 237 30
E 131 247 21
E 131 278 12
E 132 133 14
E 132 249 21
E 132 279 12
E 133 134 1
E 134 266 219
E 134 302 218
E 135 136 1
E 135 139 21
E 136 137 14
E 136 140 21
E 137 138 1
E 137 141 21
E 138 142 21
E 139 140 1
E 139 369 5
E 140 141 14
E 140 371 5
E 141 142 1
E 141 383 5
E 142 385 5
E 143 144 1
E 143 348 10
E 143 354 7
E 143 362 9
E 144 145 14
E 144 349 10
E 144 363 9
E 145 146 1
E 145 357 10
E 145 373 9
E 146 359 10
E 146 372 7
E 146 375 9
E 147 148 1
E 147 294 9
E 147 299 7
E 147 308 6
E 148 149 14
E 148 297 9
E 148 310 6
E 149 150 1
E 149 309 9
E 149 320 6
E 150 311 9
E 150 321 6
E 151 152 1
E 151 280 9
E 151 283 7
E 151 294 12
E 152 153 14
E 152 282 9
E 152 297 12
E 153 154 1
E 153 292 9
E 153 309 12
E 154 293 9
E 154 306 7
E 154 311 12
E 155 156 1
E 155 260 13
E 155 265 7
E 155 280 12
E 156 157 14
E 156 261 13
E 156 282 12
E 157 158 1
E 157 273 13
E 157 292 12
E 158 275 13
E 158 293 12
E 159 160 1
E 159 340 11
E 160 161 14
E 160 341 11
E 161 162 1
E 161 351 11
E 162 354 11
E 162 364 7
E 163 164 1
E 163 167 21
E 163 340 10
E 164 165 14
E 164 168 21
E 164 341 10
E 165 166 1
E 165 169 21
E 165 351 10
E 166 170 21
E 166 348 7
E 166 354 10
E 167 168 1
E 167 328 1
E 168 169 14
E 168 329 1
E 169 170 1
E 169 332 1
E 170 333 1
E 170 337 7
E 171 172 1
E 171 270 12
E 171 287 9
E 172 173 14
E 172 271 12
E 172 289 9
E 173 174 1
E 173 281 12
E 173 296 9
E 174 283 12
E 174 294 7
E 174 299 9
E 175 176 1
E 175 234 22
E 175 246 12
E 175 270 9
E 176 177 14
E 176 248 12
E 176 271 9
E 177 178 1
E 177 264 12
E 177 281 9
E 178 265 12
E 178 280 7
E 178 283 9
E 179 180 1
E 179 218 12
E 179 246 13
E 180 181 14
E 180 219 12
E 180 248 13
E 181 182 1
E 181 235 12
E 181 264 13
E 182 237 12
E 182 260 7
E 182 265 13
E 183 184 1
E 183 232 36
E 184 185 14
E 184 234 36
E 185 186 1
E 186 290 7
E 187 188 1
E 188 191 14
E 189 190 1
E 189 193 11
E 190 195 11
E 190 197 14
E 191 192 1
E 193 194 1
E 193 195 1
E 194 196 1
E 195 196 1
E 195 201 14
E 196 202 14
E 197 198 1
E 197 201 11
E 198 203 11
E 198 214 22
E 199 200 1
E 199 205 11
E 200 207 11
E 200 210 14
E 201 202 1
E 201 203 1
E 202 204 1
E 203 204 1
E 203 209 8
E 205 206 1
E 205 207 1
E 206 208 1
E 207 208 1
E 207 222 14
E 208 223 14
E 209 213 2
E 209 226 14
E 210 212 1
E 210 222 11
E 211 213 1
E 211 220 8
E 212 220 7
E 212 224 11
E 213 221 8
E 213 228 14
E 214 216 1
E 214 226 11
E 215 217 1
E 216 227 11
E 217 230 14
E 218 219 1
E 219 235 14
E 220 221 1
E 220 233 11
E 221 236 11
E 221 242 14
E 222 223 1
E 222 224 1
E 223 225 1
E 224 225 1
E 224 233 7
E 226 227 1
E 226 228 2
E 227 229 2
E 227 239 7
E 228 229 1
E 228 242 8
E 229 243 7
E 229 244 8
E 230 231 1
E 232 234 1
E 233 236 1
E 233 238 2
E 235 237 1
E 236 240 2
E 236 251 14
E 238 240 1
E 239 241 1
E 239 243 2
E 240 254 14
E 241 245 2
E 241 255 14
E 242 244 1
E 242 251 11
E 243 245 1
E 244 253 11
E 245 258 14
E 246 248 1
E 247 249 1
E 248 264 14
E 249 266 213
E 249 302 212
E 250 252 1
E 251 253 1
E 251 254 2
E 252 268 14
E 253 256 2
E 253 262 7
E 254 256 1
E 255 257 1
E 255 258 2
E 257 259 2
E 258 259 1
E 260 261 1
E 261 273 14
E 262 263 1
E 262 286 29
E 263 276 14
E 263 288 29
E 264 265 1
E 266 267 1
E 266 319 221
E 268 269 1
E 270 271 1
E 271 281 14
E 272 274 1
E 273 275 1
E 274 284 14
E 275 278 7
E 276 277 1
E 276 295 29
E 277 298 29
E 278 279 1
E 280 282 1
E 281 283 1
E 282 292 14
E 284 285 1
E 286 288 1
E 286 300 21
E 287 289 1
E 287 290 6
E 288 295 14
E 288 303 21
E 289 291 6
E 289 296 14
E 290 291 1
E 290 322 63
E 291 301 14
E 291 323 63
E 292 293 1
E 294 297 1
E 295 298 1
E 295 312 21
E 296 299 1
E 296 301 6
E 297 309 14
E 298 314 21
E 299 304 6
E 300 303 1
E 301 304 1
E 301 324 63
E 302 305 1
E 302 319 220
E 303 312 14
E 304 308 7
E 304 325 63
E 305 313 14
E 306 307 1
E 306 334 90
E 307 316 14
E 307 335 90
E 308 310 1
E 308 326 63
E 309 311 1
E 310 320 14
E 310 327 63
E 312 314 1
E 313 315 1
E 316 317 1
E 316 342 90
E 317 343 90
E 318 319 1
E 320 321 1
E 320 330 63
E 321 331 63
E 322 323 1
E 322 328 25
E 323 324 14
E 323 329 25
E 324 325 1
E 324 332 25
E 325 326 7
E 325 333 25
E 326 327 1
E 326 336 25
E 327 330 14
E 327 338 25
E 328 329 1
E 329 332 14
E 330 331 1
E 330 344 25
E 331 334 7
E 331 346 25
E 332 333 1
E 333 336 7
E 334 335 1
E 334 350 25
E 335 342 14
E 335 353 25
E 336 337 1
E 336 338 1
E 337 339 1
E 337 348 21
E 338 339 1
E 338 344 14
E 339 345 14
E 339 349 21
E 340 341 1
E 341 351 14
E 342 343 1
E 342 360 26
E 343 361 26
E 344 345 1
E 344 346 1
E 345 347 1
E 345 356 20
E 346 347 1
E 346 350 7
E 347 352 7
E 347 358 20
E 348 349 1
E 349 357 14
E 350 352 1
E 350 353 1
E 351 354 1
E 352 355 1
E 352 366 21
E 353 355 1
E 355 360 14
E 355 367 21
E 356 357 1
E 356 358 1
E 357 359 1
E 358 359 1
E 358 378 22
E 359 366 7
E 360 361 1
E 360 378 20
E 361 368 7
E 361 380 20
E 362 363 1
E 362 364 2
E 363 365 2
E 363 373 14
E 364 365 1
E 364 369 5
E 365 371 5
E 365 376 14
E 366 367 1
E 366 372 10
E 367 374 10
E 367 379 14
E 368 370 1
E 368 390 20
E 369 371 1
E 370 382 14
E 370 392 20
E 371 383 14
E 372 374 1
E 372 386 9
E 373 375 1
E 373 376 2
E 374 387 9
E 374 394 14
E 375 377 2
E 375 386 7
E 376 377 1
E 376 383 5
E 377 385 5
E 377 388 7
E 378 379 1
E 378 380 1
E 379 381 1
E 379 394 10
E 380 381 1
E 380 390 7
E 381 391 7
E 381 396 10
E 382 384 1
E 382 400 20
E 383 385 1
E 384 395 7
E 384 402 20
E 386 387 1
E 386 388 2
E 387 389 2
E 387 398 14
E 388 389 1
E 390 391 1
E 390 392 1
E 391 393 1
E 392 393 1
E 392 400 14
E 393 401 14
E 394 396 1
E 394 398 9
E 395 397 1
E 395 406 19
E 396 399 9
E 397 404 14
E 397 407 19
E 398 399 1
E 399 413 22
E 400 401 1
E 400 402 1
E 401 403 1
E 402 403 1
E 403 408 7
E 404 405 1
E 404 416 19
E 405 417 19
E 405 424 30
E 406 407 1
E 407 416 14
E 408 409 1
E 408 410 9
E 409 412 9
E 409 418 14
E 410 411 1
E 410 412 1
E 411 414 1
E 412 414 1
E 412 420 14
E 413 415 1
E 414 422 14
E 416 417 1
E 418 419 1
E 418 420 9
E 419 423 9
E 419 435 30
E 420 422 1
E 420 423 1
E 421 424 1
E 421 425 1
E 422 426 1
E 423 426 1
E 423 444 30
E 424 427 1
E 424 428 9
E 425 427 1
E 425 430 14
E 426 445 30
E 427 429 9
E 427 431 14
E 428 429 1
E 429 441 14
E 430 431 1
E 430 432 1
E 431 433 1
E 431 441 9
E 432 433 1
E 432 438 7
E 433 439 7
E 433 443 9
E 434 435 1
E 434 436 1
E 435 437 1
E 435 444 9
E 436 437 1
E 436 450 14
E 437 446 9
E 437 451 14
E 438 439 1
E 438 440 1
E 439 442 1
E 439 448 9
E 440 442 1
E 441 443 1
E 442 449 9
E 442 454 14
E 443 448 7
E 444 445 1
E 444 446 1
E 445 447 1
E 446 447 1
E 446 458 14
E 448 449 1
E 448 456 10
E 449 457 10
E 449 461 14
E 450 451 1
E 450 452 1
E 451 453 1
E 451 458 9
E 452 453 1
E 453 459 9
E 454 455 1
E 454 461 9
E 455 460 7
E 455 463 9
E 456 457 1
E 457 466 14
E 458 459 1
E 459 464 7
E 460 462 1
E 461 463 1
E 461 466 10
E 462 468 14
E 463 467 10
E 464 465 1
E 464 470 10
E 465 471 10
E 465 472 14
E 466 467 1
E 468 469 1
E 469 474 7
E 470 471 1
E 471 476 8
E 472 473 1
E 472 478 10
E 473 479 10
E 474 475 1
E 475 481 14
E 476 477 2
E 476 478 6
E 477 480 9
E 478 479 1
E 480 483 6
E 481 482 1
E 482 487 7
E 483 484 1
E 485 486 1
E 485 489 6
E 486 490 6
E 486 491 14
E 487 488 1
E 488 493 14
E 489 490 1
E 490 496 14
E 491 492 1
E 491 496 6
E 492 498 6
E 493 494 1
E 495 497 1
E 495 499 6
E 496 498 1
E 497 500 6
E 497 503 14
E 499 500 1
E 500 505 14
E 501 502 1
E 502 507 14
E 503 504 1
E 503 505 6
E 504 506 6
E 505 506 1
E 507 508 1
E 1 509 100000
E 2 509 100000
E 3 509 100000
E 4 509 100000
E 5 510 100000
E 6 510 100000
E 7 510 100000
E 8 510 100000
E 9 511 100000
E 10 511 100000
E 11 511 100000
E 12 511 100000
E 13 512 100000
E 14 512 100000
E 15 512 100000
E 16 512 100000
E 17 513 100000
E 18 513 100000
E 19 513 100000
E 20 513 100000
E 21 514 100000
E 22 514 100000
E 23 514 100000
E 24 514 100000
E 25 515 100000
E 26 515 100000
E 27 515 100000
E 28 515 100000
E 29 516 100000
E 30 516 100000
E 31 516 100000
E 32 516 100000
E 33 517 100000
E 34 517 100000
E 35 517 100000
E 36 517 100000
E 37 518 100000
E 38 518 100000
E 39 518 100000
E 40 518 100000
E 41 519 100000
E 42 519 100000
E 43 519 100000
E 44 519 100000
E 45 520 100000
E 46 520 100000
E 47 520 100000
E 48 520 100000
E 49 521 100000
E 50 521 100000
E 51 521 100000
E 52 521 100000
E 53 522 100000
E 54 522 100000
E 55 522 100000
E 56 522 100000
E 57 523 100000
E 58 523 100000
E 59 523 100000
E 60 523 100000
E 61 524 100000
E 62 524 100000
E 63 524 100000
E 64 524 100000
E 65 525 100000
E 66 525 100000
E 67 525 100000
E 68 525 100000
E 69 526 100000
E 70 526 100000
E 71 526 100000
E 72 526 100000
E 73 527 100000
E 74 527 100000
E 75 527 100000
E 76 527 100000
E 77 528 100000
E 78 528 100000
E 79 528 100000
E 80 528 100000
E 81 529 100000
E 82 529 100000
E 83 529 100000
E 84 529 100000
E 85 530 100000
E 86 530 100000
E 87 531 100000
E 88 531 100000
E 89 531 100000
E 90 531 100000
E 91 532 100000
E 92 532 100000
E 93 532 100000
E 94 532 100000
E 95 533 100000
E 96 533 100000
E 97 533 100000
E 98 533 100000
E 99 534 100000
E 100 534 100000
E 101 534 100000
E 102 534 100000
E 103 535 100000
E 104 535 100000
E 105 535 100000
E 106 535 100000
E 107 536 100000
E 108 536 100000
E 109 536 100000
E 110 536 100000
E 111 537 100000
E 112 537 100000
E 113 537 100000
E 114 537 100000
E 115 538 100000
E 116 538 100000
E 117 538 100000
E 118 538 100000
E 119 539 100000
E 120 539 100000
E 121 539 100000
E 122 539 100000
E 123 540 100000
E 124 540 100000
E 125 540 100000
E 126 540 100000
E 127 541 100000
E 128 541 100000
E 129 541 100000
E 130 541 100000
E 131 542 100000
E 132 542 100000
E 133 542 100000
E 134 542 100000
E 135 543 100000
E 136 543 100000
E 137 543 100000
E 138 543 100000
E 139 544 100000
E 140 544 100000
E 141 544 100000
E 142 544 100000
E 143 545 100000
E 144 545 100000
E 145 545 100000
E 146 545 100000
E 147 546 100000
E 148 546 100000
E 149 546 100000
E 150 546 100000
E 151 547 100000
E 152 547 100000
E 153 547 100000
E 154 547 100000
E 155 548 100000
E 156 548 100000
E 157 548 100000
E 158 548 100000
E 159 549 100000
E 160 549 100000
E 161 549 100000
E 162 549 100000
E 163 550 100000
E 164 550 100000
E 165 550 100000
E 166 550 100000
E 167 551 100000
E 168 551 100000
E 169 551 100000
E 170 551 100000
E 171 552 100000
E 172 552 100000
E 173 552 100000
E 174 552 100000
E 175 553 100000
E 176 553 100000
E 177 553 100000
E 178 553 100000
E 179 554 100000
E 180 554 100000
E 181 554 100000
E 182 554 100000
E 183 555 100000
E 184 555 100000
E 185 555 100000
E 186 555 100000
END

SECTION Terminals
Terminals 47
T 509
T 510
T 511
T 512
T 513
T 514
T 515
T 516
T 517
T 518
T 519
T 520
T 521
T 522
T 523
T 524
T 525
T 526
T 527
T 528
T 529
T 530
T 531
T 532
T 533
T 534
T 535
T 536
T 537
T 538
T 539
T 540
T 541
T 542
T 543
T 544
T 545
T 546
T 547
T 548
T 549
T 550
T 551
T 552
T 553
T 554
T 555
END

SECTION Tree Decomposition
c We do not guarantee that this tree decomposition has minimum width.
s td 464 18 555
b 1 86 530 85
b 2 85 480
b 3 468 469 462
b 4 469 462 474
b 5 460 462 455
b 6 480 483 477
b 7 494 493 12
b 8 462 474 455
b 9 7 510 6 8
b 10 185 555 184 186
b 11 510 6 5 8
b 12 555 183 184 186
b 13 95 96 533 187
b 14 99 187 100 534
b 15 6 5 234 8
b 16 5 232 234 8
b 17 28 515 27 506
b 18 2 3 502 509
b 19 483 484 63 477
b 20 493 11 12 488
b 21 126 540 125 399
b 22 135 136 543 139
b 23 138 543 137 142
b 24 159 160 549 340
b 25 40 39 518 314
b 26 183 184 232 186
b 27 184 232 186 234
b 28 232 186 234 8
b 29 186 234 290 8
b 30 4 3 508 509
b 31 61 62 524 470
b 32 234 175 290 8
b 33 16 512 15 285
b 34 69 526 70 438
b 35 24 23 514 269
b 36 81 529 82 189
b 37 72 526 71 455
b 38 3 508 507 502 509
b 39 356 345 358 357
b 40 362 363 143 364
b 41 369 139 371 364
b 42 389 124 387 388
b 43 406 407 103 395
b 44 410 411 412 408
b 45 413 415 113 399
b 46 414 411 412 422
b 47 421 425 110 424
b 48 426 422 423 445
b 49 428 429 91 424
b 50 430 432 431 425
b 51 1 509 501 506
b 52 440 70 442 438
b 53 447 88 445 446
b 54 452 94 453 450
b 55 467 68 463 466
b 56 476 477 471 478
b 57 474 475 33 455
b 58 479 478 64 473
b 59 481 35 475 482
b 60 489 490 485 29
b 61 492 36 491 498
b 62 487 488 9 482
b 63 499 500 25 495
b 64 504 503 32 506
b 65 193 189 195 194
b 66 199 205 77 200
b 67 204 202 80 203
b 68 209 203 213 226
b 69 211 80 220 213
b 70 214 216 198 226
b 71 215 217 45 84
b 72 218 219 179 8
b 73 225 76 223 224
b 74 231 21 230 48
b 75 235 237 219 181
b 76 246 179 248 175
b 77 247 249 8 131
b 78 256 254 60 253
b 79 259 257 44 258
b 80 260 261 155 182
b 81 267 74 53 266
b 82 270 171 271 175
b 83 273 275 157 261
b 84 279 132 128 278
b 85 287 171 289 290
b 86 293 158 292 154
b 87 298 314 295 277
b 88 305 313 50 302
b 89 311 150 309 154
b 90 315 313 52 37
b 91 317 316 343 130
b 92 318 121 319 130
b 93 321 150 320 331
b 94 322 328 323 290
b 95 515 26 27 506 25
b 96 26 27 500 506 25
b 97 27 505 500 506 25
b 98 505 500 503 506 25
b 99 23 514 22 269 268
b 100 514 22 269 268 21
b 101 22 269 268 252 21
b 102 516 31 30 32 29
b 103 96 533 97 188 187
b 104 533 97 188 187 98
b 105 97 188 187 191 98
b 106 188 187 100 191 98
b 107 187 100 534 191 98
b 108 100 101 534 191 98
b 109 101 534 191 98 102
b 110 191 98 102 192
b 111 98 102 192 206
b 112 102 192 194 206
b 113 192 194 77 206
b 114 540 125 124 123 399
b 115 125 124 123 398 399
b 116 508 507 12 502 509
b 117 507 11 12 502 509
b 118 517 34 35 36 33
b 119 547 153 152 151 154
b 120 553 176 177 175 178
b 121 541 127 128 129 130
b 122 512 15 14 285 13
b 123 15 14 285 284 13
b 124 14 285 284 274 13
b 125 552 172 171 173 174
b 126 539 120 122 121 119
b 127 511 10 11 12 9
b 128 10 11 12 502 488 9
b 129 11 12 502 488 509 9
b 130 502 488 509 501 9
b 131 488 509 501 9 482
b 132 509 501 9 482 506
b 133 501 9 482 32 506
b 134 9 498 482 32 506
b 135 522 54 56 55 53
b 136 526 70 71 455 438
b 137 70 71 442 455 438
b 138 71 454 442 455 438
b 139 513 18 19 20 17
b 140 535 104 105 106 103
b 141 454 442 461 455 438
b 142 538 117 116 118 115
b 143 542 133 134 132 131
b 144 546 149 150 148 147
b 145 550 165 163 164 166
b 146 136 543 137 140 139
b 147 543 137 140 139 142
b 148 137 140 139 141 142
b 149 519 43 42 44 41
b 150 537 112 113 114 111
b 151 551 168 169 167 170
b 152 112 113 114 393 111
b 153 532 93 94 92 91
b 154 39 518 38 312 314
b 155 518 38 312 314 37
b 156 38 312 314 303 37
b 157 312 314 295 303 37
b 158 314 295 303 277 37
b 159 528 78 77 79 80
b 160 545 145 144 146 143
b 161 160 549 161 340 341
b 162 549 161 340 341 162
b 163 161 340 341 351 162
b 164 120 122 121 119 116
b 165 536 109 108 107 110
b 166 527 75 73 74 76
b 167 75 73 74 76 223
b 168 109 108 107 404 110
b 169 108 397 107 404 110
b 170 523 59 57 58 60
b 171 269 268 252 21 20
b 172 268 252 21 19 20
b 173 525 68 67 66 65
b 174 285 284 274 13 20
b 175 284 274 13 19 20
b 176 548 156 157 158 155
b 177 133 134 132 129 131
b 178 554 180 179 181 182
b 179 544 140 139 141 142
b 180 140 139 141 142 371
b 181 139 141 142 371 364
b 182 141 142 371 383 364
b 183 142 371 383 385 364
b 184 371 383 365 385 364
b 185 383 365 376 385 364
b 186 365 376 363 385 364
b 187 529 82 83 189 84
b 188 82 83 190 189 84
b 189 83 190 189 197 84
b 190 190 189 197 195 84
b 191 189 197 195 194 84
b 192 521 51 49 50 52
b 193 531 89 88 90 87
b 194 520 46 47 48 45
b 195 89 88 90 458 87
b 196 340 341 351 162 163
b 197 341 351 162 163 164
b 198 415 113 87 114 399
b 199 432 431 425 433 438
b 200 411 412 422 408 114
b 201 328 323 329 167 290
b 202 205 77 200 207 206
b 203 216 227 45 198 226
b 204 217 46 230 45 84
b 205 62 477 524 471 470
b 206 237 219 181 182 131
b 207 484 63 477 64 25
b 208 63 477 524 478 64 25
b 209 275 157 261 158 278
b 210 88 90 458 445 446 87
b 211 351 162 354 165 163 164
b 212 124 123 398 387 388 399
b 213 180 219 179 181 248 182
b 214 123 398 387 388 385 399
b 215 162 354 165 163 164 364
b 216 398 387 388 385 394 399
b 217 500 497 503 506 25 495
b 218 252 250 21 18 19 20
b 219 497 503 30 506 25 495
b 220 274 13 272 18 19 20
b 221 13 272 18 19 20 277
b 222 412 422 420 409 408 114
b 223 122 121 119 116 319 118
b 224 34 35 36 475 486 33
b 225 149 150 320 309 148 147
b 226 442 461 455 439 449 438
b 227 397 107 404 407 110 395
b 228 107 404 407 110 395 118
b 229 153 152 309 151 292 154
b 230 176 177 271 248 175 178
b 231 172 171 289 271 173 174
b 232 197 195 201 194 84 198
b 233 195 201 196 194 84 198
b 234 156 157 261 158 155 282
b 235 51 313 49 50 52 55
b 236 295 303 288 276 277 37
b 237 303 288 276 277 37 300
b 238 376 363 373 385 377 364
b 239 354 165 163 164 166 143 364
b 240 35 36 475 491 482 486 33
b 241 36 475 491 498 482 486 33
b 242 475 491 498 482 486 33 455
b 243 491 498 482 486 33 496 455
b 244 157 261 158 155 282 292 278
b 245 261 158 155 182 282 292 278
b 246 165 163 164 166 169 143 364
b 247 163 164 166 169 167 143 364
b 248 164 166 168 169 167 143 364
b 249 477 524 471 478 64 25 470
b 250 471 478 64 25 465 470
b 251 250 21 18 19 20 17 48
b 252 21 18 19 20 17 230 48
b 253 219 179 181 248 182 8 131
b 254 179 181 248 175 182 8 131
b 255 181 248 175 182 264 8 131
b 256 272 18 19 20 17 277 44
b 257 18 19 20 17 230 48 277 44
b 258 17 230 48 257 277 44
b 259 503 31 30 32 506 25 495
b 260 451 453 450 437 458
b 261 342 316 343 360 335
b 262 344 346 345 330 338
b 263 359 358 366 146 357
b 264 380 361 390 378 381
b 265 286 288 262 60 300
b 266 367 379 374 366 355
b 267 416 404 417 407 105
b 268 375 373 377 386 146
b 269 457 66 466 456 449
b 270 444 423 435 445 446
b 271 400 402 401 392 382
b 272 353 115 335 350 355
b 273 443 448 94 433 441
b 274 325 333 324 304 326
b 275 436 434 92 450 437
b 276 464 465 65 459 470
b 277 332 169 329 333 324
b 278 472 478 473 67 465
b 279 478 64 473 25 67 465 470
b 280 64 473 25 495 67 465 470
b 281 418 420 419 105 409
b 282 372 386 374 366 146
b 283 307 316 335 306 128
b 284 352 347 366 350 355
b 285 297 294 152 309 148
b 286 265 155 178 182 264
b 287 299 147 174 296 304
b 288 263 288 262 276 42
b 289 405 404 417 110 424
b 290 337 336 170 339 348
b 291 403 408 402 114 401
b 292 396 111 381 394 399
b 293 308 147 310 304 326
b 294 208 74 207 206 223
b 295 210 222 212 200 79
b 296 228 213 226 229 242
b 297 255 47 257 241 258
b 298 233 224 220 236 238
b 299 391 393 111 390 381
b 300 239 227 243 45 241
b 301 240 58 254 236 238
b 302 244 41 253 229 242
b 303 245 243 241 42 258
b 304 427 431 425 429 424
b 305 251 254 253 236 242
b 306 221 220 213 236 242
b 307 349 144 357 339 348
b 308 370 116 392 368 382
b 309 301 324 291 296 304
b 310 384 395 402 118 382
b 311 280 155 178 151 282
b 312 281 283 177 271 173
b 313 327 310 326 330 338
b 314 334 335 306 331 350
b 315 93 94 441 92 450 91
b 316 104 407 105 106 409 103
b 317 43 276 42 44 258 41
b 318 323 329 167 324 290 291
b 319 73 74 76 206 223 266
b 320 59 57 55 58 254 60
b 321 78 196 77 200 79 80
b 322 313 49 50 52 55 37 302
b 323 49 50 52 55 37 53 302
b 324 50 52 54 55 37 53 302
b 325 52 54 56 55 37 53 302
b 326 54 56 55 58 37 53 302
b 327 201 202 196 194 203 84 198
b 328 74 76 207 206 223 53 266
b 329 171 289 271 173 175 174 290
b 330 121 117 119 116 319 118 130
b 331 57 55 58 254 60 53 238
b 332 117 119 116 319 118 382 115 130
b 333 119 116 319 118 382 115 343 130
b 334 145 373 144 146 357 143
b 335 490 485 486 30 496 29
b 336 461 463 455 466 439 449 438
b 337 387 388 385 386 374 394 399
b 338 388 385 377 386 374 394 399
b 339 422 420 423 445 409 408 114
b 340 150 320 309 148 147 154 331
b 341 46 47 230 48 45 241 84
b 342 47 230 48 257 45 241 258 84
b 343 363 373 144 385 377 143 364
b 344 227 243 45 241 198 226 229
b 345 431 425 429 433 438 441 424
b 346 425 429 433 438 441 110 424
b 347 485 486 33 30 496 29 68
b 348 283 177 271 173 178 151 174
b 349 289 271 173 175 174 290 291 296
b 350 429 433 438 441 92 91 110 424
b 351 420 419 423 445 105 409 408 114
b 352 166 168 169 167 170 143 348 364
b 353 168 169 329 167 170 143 348 364
b 354 202 196 194 79 80 203 84 198
b 355 320 309 148 147 310 330 154 331
b 356 56 55 58 37 60 300 53 302
b 357 55 58 254 37 60 300 53 238 302
b 358 58 254 37 60 300 53 236 238 302
b 359 230 48 257 45 241 277 44 258 84
b 360 196 194 77 200 79 80 203 84 198
b 361 194 77 200 79 80 203 206 84 198
b 362 77 200 79 80 203 207 206 84 198
b 363 249 132 8 131 266 302
b 364 113 87 114 401 393 111 399
b 365 448 456 439 449 94 433 441
b 366 90 458 459 470 445 446 87
b 367 347 346 345 358 366 350 355
b 368 222 212 200 79 207 223 224
b 369 212 200 79 80 207 223 224 220
b 370 294 152 309 148 147 151 174
b 371 31 30 32 496 506 29 25 495
b 372 498 482 486 33 32 496 506 455
b 373 486 33 30 32 496 506 29 68 455
b 374 33 30 32 496 506 29 68 463 455
b 375 30 32 496 506 29 25 495 68 463 455
b 376 29 473 25 495 68 463 455
b 377 169 329 167 170 333 324 143 348 364
b 378 473 25 495 68 67 465 463 455 470
b 379 177 271 173 248 175 178 264 151 174
b 380 68 67 465 66 65 463 455 466 470
b 381 465 66 65 463 455 466 459 470
b 382 66 65 463 455 466 456 449 459 470
b 383 65 463 455 466 456 449 453 459 470
b 384 463 455 466 456 439 449 438 453 459 470
b 385 361 390 368 343 360 378 381
b 386 336 170 333 326 338 339 348
b 387 288 262 276 277 42 37 60 300
b 388 158 155 182 282 292 127 154 278
b 389 404 417 407 105 110 424 395 118
b 390 76 207 206 223 224 53 238 266
b 391 419 423 435 445 105 106 409 408 114
b 392 423 435 445 446 105 106 409 408 114
b 393 116 319 392 118 368 382 115 343 130
b 394 373 144 385 377 386 146 357 143 364
b 395 417 407 91 105 106 110 424 395 118
b 396 152 309 148 147 151 174 282 292 154
b 397 262 276 277 42 41 37 60 253 300
b 398 276 277 42 44 258 41 37 60 253 300
b 399 456 439 449 94 433 438 441 453 459 470
b 400 407 91 105 106 110 409 424 103 395 118
b 401 434 92 450 437 435 91 106
b 402 379 374 366 355 378 381 394
b 403 329 167 170 333 324 290 291 143 348 364
b 404 144 385 377 386 146 357 143 339 348 364
b 405 94 433 438 441 453 92 450 459 470 91
b 406 433 438 441 453 92 450 459 470 91 110 424
b 407 453 92 450 437 458 459 470 91 110 424
b 408 92 450 437 458 459 470 435 91 106 110 424
b 409 437 458 459 470 435 446 91 106 110 424
b 410 458 459 470 435 445 446 91 106 110 424 87
b 411 435 445 446 91 105 106 110 409 424 408 87 114
b 412 91 105 106 110 409 424 103 408 395 87 114 118
b 413 103 408 395 402 87 114 118
b 414 408 395 402 87 114 401 118
b 415 395 402 87 114 401 118 382
b 416 402 87 114 401 392 118 382
b 417 87 114 401 393 111 392 118 382 399
b 418 393 111 390 392 118 382 381 399
b 419 111 390 392 118 382 381 394 399
b 420 134 132 129 130 131 266 302
b 421 316 343 360 335 306 128 129 130
b 422 132 8 128 129 130 131 266 278 302
b 423 243 45 241 42 258 41 198 226 229
b 424 45 241 277 42 44 258 41 84 198 226 229
b 425 254 37 60 253 300 53 236 238 242 302
b 426 200 79 80 203 207 206 223 224 220 84 198
b 427 80 203 207 206 223 224 220 213 84 198
b 428 203 207 206 223 224 220 213 84 198 226
b 429 155 178 182 264 151 282 292 127 154 278
b 430 309 148 147 310 151 174 282 292 330 154 331
b 431 271 173 248 175 178 264 151 174 290 291 296
b 432 346 345 358 366 330 338 331 350 355
b 433 345 358 366 357 330 338 339 331 350 355
b 434 358 366 146 357 330 338 339 331 350 355 378
b 435 390 392 118 368 382 343 360 378 381 394 399
b 436 319 392 118 368 382 115 343 130 266 302
b 437 170 333 324 290 291 326 143 338 339 348 364
b 438 333 324 290 291 304 326 143 338 339 348 364
b 439 324 290 291 296 304 326 143 338 339 348 364
b 440 207 206 223 224 220 213 53 84 198 226 238 266
b 441 224 220 213 53 84 198 226 236 238 266
b 442 220 213 53 84 198 226 236 238 242 266
b 443 213 53 84 198 226 229 236 238 242 266
b 444 248 175 178 182 264 151 174 290 291 296 8 131
b 445 277 42 44 258 41 37 60 253 300 84 198 226 229
b 446 41 37 60 253 300 84 198 226 229 242
b 447 37 60 253 300 53 84 198 226 229 236 238 242 302
b 448 53 84 198 226 229 236 238 242 266 302
b 449 385 377 386 374 146 357 143 339 348 364 394 399
b 450 386 374 366 146 357 143 339 348 364 394 399
b 451 374 366 146 357 143 339 348 364 355 378 381 394 399
b 452 392 118 368 382 115 343 360 130 266 302 378 381 394 399
b 453 115 343 360 335 130 266 302 350 355 378 381 394 399
b 454 343 360 335 306 128 129 130 266 302 350 355 378 381 394 399
b 455 335 306 128 129 130 266 302 331 350 355 378 381 394 399
b 456 147 310 151 174 282 292 296 304 326 330 154 331
b 457 310 151 174 282 292 296 304 326 330 338 154 331
b 458 306 127 128 129 130 154 266 302 331 350 355 378 381 394 399
b 459 366 146 357 143 330 338 339 348 364 331 350 355 378 381 394 399
b 460 178 182 264 151 174 282 292 290 291 296 8 127 131 154 278
b 461 151 174 282 292 290 291 296 304 326 330 338 8 127 131 154 278 331
b 462 290 291 296 304 326 143 330 338 339 348 364 8 127 131 154 278 331
b 463 143 330 338 339 348 364 8 127 131 154 278 331 350 355 378 381 394 399
b 464 8 127 128 129 130 131 154 266 278 302 331 350 355 378 381 394 399
1 2
2 6
6 19
19 207
207 208
208 249
249 250
250 279
279 280
280 378
378 376
378 380
380 381
381 382
382 383
383 384
384 399
399 405
405 406
406 407
407 408
408 409
409 410
410 411
411 412
412 400
411 392
400 395
392 391
406 350
395 389
391 351
376 375
375 374
374 373
375 371
384 336
399 365
408 401
410 366
412 413
413 414
414 415
415 416
416 417
350 346
417 364
417 418
418 419
419 435
435 452
452 453
453 454
454 455
455 458
458 464
464 463
463 459
463 462
462 461
459 451
461 460
461 457
457 456
451 450
460 444
462 439
459 434
450 449
439 438
438 437
452 436
460 429
456 430
444 431
449 404
434 433
464 422
437 403
436 393
430 396
431 379
404 394
433 432
403 377
454 421
429 388
430 355
431 349
393 333
377 353
333 332
353 352
435 385
346 345
451 402
444 255
449 338
437 386
422 420
396 370
379 348
394 343
432 367
388 245
355 340
349 329
332 330
352 248
255 254
338 337
245 244
248 247
254 253
247 246
351 339
246 239
373 372
373 347
371 259
372 243
243 242
242 241
241 240
366 210
336 226
405 315
422 363
403 318
396 229
379 230
394 334
400 316
343 238
340 225
330 223
389 228
337 216
244 234
339 222
239 215
253 213
347 335
259 219
329 231
240 224
228 227
216 214
215 211
219 217
214 212
365 273
401 275
381 276
414 291
382 269
415 310
416 271
364 152
364 198
152 150
418 299
419 292
453 272
455 314
458 121
279 278
407 260
345 304
457 313
421 261
456 287
456 293
450 282
421 283
439 309
434 263
438 274
210 195
195 193
429 286
429 311
249 205
404 307
393 308
394 268
432 262
377 277
392 270
353 151
332 142
385 264
345 199
402 266
386 290
420 177
177 143
370 285
348 312
367 284
389 267
389 289
244 209
253 206
380 173
246 145
351 281
372 134
134 133
133 132
132 131
131 130
130 129
129 128
129 117
128 127
117 116
116 38
315 153
318 201
226 141
229 119
141 138
138 137
137 136
230 120
334 160
238 186
186 185
185 184
184 183
183 182
182 181
181 180
180 148
180 179
148 147
147 146
316 140
225 144
223 164
164 126
234 176
222 200
213 178
231 125
227 169
371 102
169 168
168 165
224 118
211 197
217 98
197 196
98 97
196 163
97 96
163 162
96 95
162 161
212 115
115 114
199 50
209 83
206 75
132 51
131 62
128 20
38 18
201 94
198 45
137 52
205 31
136 34
136 37
181 41
346 47
147 23
146 22
200 44
200 46
95 17
161 24
114 21
279 58
405 54
444 32
32 29
29 28
28 16
28 27
16 15
27 26
15 11
26 12
11 9
12 10
210 53
421 91
240 59
433 39
422 84
400 43
388 86
249 56
343 40
350 49
245 80
340 89
340 93
329 82
329 85
330 92
254 76
253 72
380 55
339 48
259 64
38 30
242 57
241 61
363 77
335 60
217 63
212 42
20 7
452 448
448 443
448 447
443 442
447 425
447 446
442 441
446 445
441 440
445 398
445 424
440 428
428 427
427 426
398 397
424 423
425 358
426 362
358 357
362 361
361 360
440 390
426 369
397 387
357 356
360 354
424 359
359 342
423 344
357 331
390 328
369 368
356 326
354 327
342 341
326 325
325 324
324 323
323 322
398 317
360 321
387 237
359 258
331 320
328 319
327 233
322 235
237 236
258 257
257 252
257 256
252 251
233 232
256 221
251 218
221 220
220 175
443 296
442 306
425 305
446 302
441 298
423 303
358 301
362 202
387 265
387 288
342 297
344 203
344 300
328 294
368 295
326 135
341 194
341 204
321 159
317 149
320 170
319 167
235 192
236 158
257 139
232 191
218 172
175 174
167 166
158 157
191 190
172 171
157 156
174 124
190 189
171 101
156 155
124 123
189 188
101 100
155 154
123 122
188 187
100 99
425 78
428 68
427 69
361 113
390 73
354 67
359 79
328 81
322 90
322 88
252 74
202 66
203 70
204 71
158 87
191 65
113 112
112 111
154 25
111 110
122 33
187 36
110 109
109 108
108 107
107 106
106 105
105 104
104 103
107 14
99 35
103 13
57 8
8 4
8 5
4 3
END

EOF
